c
p cnf 18 37
8 18 0
2 17 0
-8 -6 0
18 -4 0
15 -12 0
9 6 0
3 -12 0
17 5 0
-6 -9 0
13 16 0
-5 9 0
-18 7 0
-1 9 0
-2 14 0
3 8 0
4 2 0
-8 -14 0
5 -4 0
-8 18 0
16 -18 0
13 14 0
-18 11 0
-10 13 0
2 6 0
-2 7 0
12 -4 0
16 -4 0
-8 -7 0
-9 -7 0
-12 -6 0
15 -4 0
4 14 0
4 -10 0
13 8 0
-17 -18 0
-16 11 0
13 -2 0
